p wcnf 143 170 171 
1 125 -105 0 
1 110 133 0 
1 47 75 0 
1 -141 -120 0 
1 58 -130 0 
1 -126 -74 0 
1 108 31 0 
1 -24 75 0 
1 -40 -36 0 
1 121 129 0 
1 37 17 0 
1 39 -29 0 
1 51 -135 0 
1 67 70 0 
1 -57 -133 0 
1 4 -105 0 
1 -41 105 0 
1 -140 -139 0 
1 -63 -118 0 
1 20 -8 0 
1 -78 -40 0 
1 31 112 0 
1 114 -52 0 
1 21 -76 0 
1 -16 -134 0 
1 -19 -137 0 
1 -46 116 0 
1 57 -39 0 
1 87 49 0 
1 -20 -71 0 
1 -11 21 0 
1 16 -37 0 
1 24 142 0 
1 78 33 0 
1 -4 99 0 
1 40 112 0 
1 -118 81 0 
1 -133 -67 0 
1 82 65 0 
1 -91 42 0 
1 -92 109 0 
1 13 9 0 
1 31 79 0 
1 -139 136 0 
1 -107 -31 0 
1 42 -56 0 
1 47 68 0 
1 87 90 0 
1 139 -112 0 
1 96 84 0 
1 -20 -117 0 
1 27 76 0 
1 73 117 0 
1 54 -128 0 
1 21 -107 0 
1 128 116 0 
1 -42 50 0 
1 -54 -112 0 
1 5 6 0 
1 -102 56 0 
1 2 110 0 
1 -36 66 0 
1 19 -32 0 
1 -50 -20 0 
1 -35 -48 0 
1 -3 140 0 
1 -87 -88 0 
1 -60 -3 0 
1 -54 -135 0 
1 60 -59 0 
1 38 -48 0 
1 -100 -66 0 
1 -134 11 0 
1 -88 -85 0 
1 -37 -122 0 
1 68 82 0 
1 134 112 0 
1 -60 -122 0 
1 -102 99 0 
1 46 24 0 
1 142 21 0 
1 -123 96 0 
1 82 -21 0 
1 -88 -112 0 
1 86 -43 0 
1 -116 -47 0 
1 1 17 0 
1 -49 -139 0 
1 -1 -129 0 
1 -116 -129 0 
1 122 139 0 
1 32 88 0 
1 2 -85 0 
1 63 16 0 
1 -134 -98 0 
1 -68 -110 0 
1 -86 -81 0 
1 53 -74 0 
1 -65 -18 0 
1 -67 61 0 
1 87 81 0 
1 -89 -1 0 
1 89 139 0 
1 12 107 0 
1 126 70 0 
1 -28 -76 0 
1 88 25 0 
1 56 79 0 
1 76 -60 0 
1 20 -128 0 
1 21 -9 0 
1 118 -87 0 
1 54 65 0 
1 26 -130 0 
1 -20 38 0 
1 17 -42 0 
1 -106 -133 0 
1 101 106 0 
1 106 -52 0 
1 -136 37 0 
1 -23 2 0 
1 -98 -30 0 
1 -126 10 0 
1 -61 53 0 
1 50 -97 0 
1 -125 95 0 
1 -43 -77 0 
1 -67 97 0 
1 126 59 0 
1 -113 -106 0 
1 -64 121 0 
1 -92 -30 0 
1 -114 -71 0 
1 80 -123 0 
1 -50 81 0 
1 -116 45 0 
1 -29 72 0 
1 -124 -32 0 
1 3 -112 0 
1 -63 131 0 
1 -36 63 0 
1 5 -34 0 
1 8 103 0 
1 89 14 0 
1 -75 -120 0 
1 -108 -137 0 
1 -109 -77 0 
1 -10 91 0 
1 -112 101 0 
1 -39 42 0 
1 8 54 0 
1 -29 57 0 
1 -21 -48 0 
1 -58 -49 0 
1 -81 -116 0 
1 116 82 0 
1 9 -22 0 
1 -33 122 0 
1 115 128 0 
1 90 -18 0 
1 -98 129 0 
1 79 27 0 
1 -45 48 0 
1 21 115 0 
1 -3 -33 0 
1 107 72 0 
1 -53 120 0 
1 40 -80 0 
1 3 128 0 
1 -98 -35 0 
